pure_adt/tip2015_weird_nat_mul3_rrot.smt2
(set-logic HORN)
(declare-datatypes ((Nat_301 0)) (((zero_57 ) (succ_56 (p_156 Nat_301)))))
(declare-fun diseqNat_301 (Nat_301 Nat_301) Bool)
(declare-fun p_157 (Nat_301 Nat_301) Bool)
(declare-fun iszero_56 (Nat_301) Bool)
(declare-fun issucc_56 (Nat_301) Bool)
(assert (forall ((x_26353 Nat_301))
	(p_157 x_26353 (succ_56 x_26353))))
(assert (iszero_56 zero_57))
(assert (forall ((x_26355 Nat_301))
	(issucc_56 (succ_56 x_26355))))
(assert (forall ((x_26356 Nat_301))
	(diseqNat_301 zero_57 (succ_56 x_26356))))
(assert (forall ((x_26357 Nat_301))
	(diseqNat_301 (succ_56 x_26357) zero_57)))
(assert (forall ((x_26358 Nat_301) (x_26359 Nat_301))
	(=> (diseqNat_301 x_26358 x_26359)
	    (diseqNat_301 (succ_56 x_26358) (succ_56 x_26359)))))
(declare-fun plus_56 (Nat_301 Nat_301 Nat_301) Bool)
(assert (forall ((x_26257 Nat_301) (z_993 Nat_301) (y_1032 Nat_301))
	(=> (plus_56 x_26257 z_993 y_1032)
	    (plus_56 (succ_56 x_26257) (succ_56 z_993) y_1032))))
(assert (forall ((x_26258 Nat_301))
	(plus_56 x_26258 zero_57 x_26258)))
(declare-fun add_182 (Nat_301 Nat_301 Nat_301 Nat_301) Bool)
(assert (forall ((x_26259 Nat_301) (x_26260 Nat_301) (x_26245 Nat_301) (y_1033 Nat_301) (z_994 Nat_301))
	(=>	(and (add_182 x_26260 x_26245 y_1033 z_994)
			(plus_56 x_26259 (succ_56 zero_57) x_26260))
		(add_182 x_26259 (succ_56 x_26245) y_1033 z_994))))
(assert (forall ((x_26262 Nat_301) (x_26263 Nat_301) (x_26246 Nat_301) (z_994 Nat_301))
	(=>	(and (add_182 x_26263 zero_57 x_26246 z_994)
			(plus_56 x_26262 (succ_56 zero_57) x_26263))
		(add_182 x_26262 zero_57 (succ_56 x_26246) z_994))))
(assert (forall ((x_26265 Nat_301))
	(add_182 x_26265 zero_57 zero_57 x_26265)))
(declare-fun mul_1 (Nat_301 Nat_301 Nat_301 Nat_301) Bool)
(assert (forall ((x_26266 Nat_301) (x_26267 Nat_301) (x_26268 Nat_301) (x_26269 Nat_301) (x_26270 Nat_301) (x_26271 Nat_301) (x_26272 Nat_301) (fail_10 Nat_301))
	(=>	(and (mul_1 x_26266 zero_57 zero_57 zero_57)
			(mul_1 x_26267 (succ_56 zero_57) zero_57 zero_57)
			(mul_1 x_26268 zero_57 (succ_56 zero_57) zero_57)
			(mul_1 x_26269 zero_57 zero_57 (succ_56 zero_57))
			(add_182 x_26270 x_26267 x_26268 x_26269)
			(add_182 x_26271 zero_57 zero_57 zero_57)
			(add_182 x_26272 x_26266 x_26270 x_26271)
			(plus_56 fail_10 (succ_56 zero_57) x_26272))
		(mul_1 (succ_56 zero_57) (succ_56 zero_57) (succ_56 zero_57) (succ_56 zero_57)))))
(assert (forall ((x_26275 Nat_301) (x_26276 Nat_301) (x_26277 Nat_301) (x_26278 Nat_301) (x_26279 Nat_301) (x_26280 Nat_301) (x_26281 Nat_301) (fail_10 Nat_301) (x_26250 Nat_301) (x_26249 Nat_301) (x_26248 Nat_301))
	(=>	(and (diseqNat_301 x_26248 zero_57)
			(mul_1 x_26275 x_26248 x_26249 x_26250)
			(mul_1 x_26276 (succ_56 zero_57) x_26249 x_26250)
			(mul_1 x_26277 x_26248 (succ_56 zero_57) x_26250)
			(mul_1 x_26278 x_26248 x_26249 (succ_56 zero_57))
			(add_182 x_26279 x_26276 x_26277 x_26278)
			(add_182 x_26280 x_26248 x_26249 x_26250)
			(add_182 x_26281 x_26275 x_26279 x_26280)
			(plus_56 fail_10 (succ_56 zero_57) x_26281))
		(mul_1 fail_10 (succ_56 x_26248) (succ_56 x_26249) (succ_56 x_26250)))))
(assert (forall ((x_26284 Nat_301) (x_26285 Nat_301) (x_26286 Nat_301) (x_26287 Nat_301) (x_26288 Nat_301) (x_26289 Nat_301) (x_26290 Nat_301) (fail_10 Nat_301) (x_26250 Nat_301) (x_26249 Nat_301))
	(=>	(and (diseqNat_301 x_26249 zero_57)
			(mul_1 x_26284 zero_57 x_26249 x_26250)
			(mul_1 x_26285 (succ_56 zero_57) x_26249 x_26250)
			(mul_1 x_26286 zero_57 (succ_56 zero_57) x_26250)
			(mul_1 x_26287 zero_57 x_26249 (succ_56 zero_57))
			(add_182 x_26288 x_26285 x_26286 x_26287)
			(add_182 x_26289 zero_57 x_26249 x_26250)
			(add_182 x_26290 x_26284 x_26288 x_26289)
			(plus_56 fail_10 (succ_56 zero_57) x_26290))
		(mul_1 fail_10 (succ_56 zero_57) (succ_56 x_26249) (succ_56 x_26250)))))
(assert (forall ((x_26293 Nat_301) (x_26294 Nat_301) (x_26295 Nat_301) (x_26296 Nat_301) (x_26297 Nat_301) (x_26298 Nat_301) (x_26299 Nat_301) (fail_10 Nat_301) (x_26250 Nat_301) (x_26249 Nat_301) (x_26248 Nat_301))
	(=>	(and (diseqNat_301 x_26248 zero_57)
			(mul_1 x_26293 x_26248 x_26249 x_26250)
			(mul_1 x_26294 (succ_56 zero_57) x_26249 x_26250)
			(mul_1 x_26295 x_26248 (succ_56 zero_57) x_26250)
			(mul_1 x_26296 x_26248 x_26249 (succ_56 zero_57))
			(add_182 x_26297 x_26294 x_26295 x_26296)
			(add_182 x_26298 x_26248 x_26249 x_26250)
			(add_182 x_26299 x_26293 x_26297 x_26298)
			(plus_56 fail_10 (succ_56 zero_57) x_26299))
		(mul_1 fail_10 (succ_56 x_26248) (succ_56 x_26249) (succ_56 x_26250)))))
(assert (forall ((x_26302 Nat_301) (x_26303 Nat_301) (x_26304 Nat_301) (x_26305 Nat_301) (x_26306 Nat_301) (x_26307 Nat_301) (x_26308 Nat_301) (fail_10 Nat_301) (x_26250 Nat_301))
	(=>	(and (diseqNat_301 x_26250 zero_57)
			(mul_1 x_26302 zero_57 zero_57 x_26250)
			(mul_1 x_26303 (succ_56 zero_57) zero_57 x_26250)
			(mul_1 x_26304 zero_57 (succ_56 zero_57) x_26250)
			(mul_1 x_26305 zero_57 zero_57 (succ_56 zero_57))
			(add_182 x_26306 x_26303 x_26304 x_26305)
			(add_182 x_26307 zero_57 zero_57 x_26250)
			(add_182 x_26308 x_26302 x_26306 x_26307)
			(plus_56 fail_10 (succ_56 zero_57) x_26308))
		(mul_1 fail_10 (succ_56 zero_57) (succ_56 zero_57) (succ_56 x_26250)))))
(assert (forall ((x_26311 Nat_301) (x_26312 Nat_301) (x_26313 Nat_301) (x_26314 Nat_301) (x_26315 Nat_301) (x_26316 Nat_301) (x_26317 Nat_301) (fail_10 Nat_301) (x_26250 Nat_301) (x_26249 Nat_301) (x_26248 Nat_301))
	(=>	(and (diseqNat_301 x_26248 zero_57)
			(mul_1 x_26311 x_26248 x_26249 x_26250)
			(mul_1 x_26312 (succ_56 zero_57) x_26249 x_26250)
			(mul_1 x_26313 x_26248 (succ_56 zero_57) x_26250)
			(mul_1 x_26314 x_26248 x_26249 (succ_56 zero_57))
			(add_182 x_26315 x_26312 x_26313 x_26314)
			(add_182 x_26316 x_26248 x_26249 x_26250)
			(add_182 x_26317 x_26311 x_26315 x_26316)
			(plus_56 fail_10 (succ_56 zero_57) x_26317))
		(mul_1 fail_10 (succ_56 x_26248) (succ_56 x_26249) (succ_56 x_26250)))))
(assert (forall ((x_26320 Nat_301) (x_26321 Nat_301) (x_26322 Nat_301) (x_26323 Nat_301) (x_26324 Nat_301) (x_26325 Nat_301) (x_26326 Nat_301) (fail_10 Nat_301) (x_26250 Nat_301) (x_26249 Nat_301))
	(=>	(and (diseqNat_301 x_26249 zero_57)
			(mul_1 x_26320 zero_57 x_26249 x_26250)
			(mul_1 x_26321 (succ_56 zero_57) x_26249 x_26250)
			(mul_1 x_26322 zero_57 (succ_56 zero_57) x_26250)
			(mul_1 x_26323 zero_57 x_26249 (succ_56 zero_57))
			(add_182 x_26324 x_26321 x_26322 x_26323)
			(add_182 x_26325 zero_57 x_26249 x_26250)
			(add_182 x_26326 x_26320 x_26324 x_26325)
			(plus_56 fail_10 (succ_56 zero_57) x_26326))
		(mul_1 fail_10 (succ_56 zero_57) (succ_56 x_26249) (succ_56 x_26250)))))
(assert (forall ((x_26329 Nat_301) (x_26330 Nat_301) (x_26331 Nat_301) (x_26332 Nat_301) (x_26333 Nat_301) (x_26334 Nat_301) (x_26335 Nat_301) (fail_10 Nat_301) (x_26250 Nat_301) (x_26249 Nat_301) (x_26248 Nat_301))
	(=>	(and (diseqNat_301 x_26248 zero_57)
			(mul_1 x_26329 x_26248 x_26249 x_26250)
			(mul_1 x_26330 (succ_56 zero_57) x_26249 x_26250)
			(mul_1 x_26331 x_26248 (succ_56 zero_57) x_26250)
			(mul_1 x_26332 x_26248 x_26249 (succ_56 zero_57))
			(add_182 x_26333 x_26330 x_26331 x_26332)
			(add_182 x_26334 x_26248 x_26249 x_26250)
			(add_182 x_26335 x_26329 x_26333 x_26334)
			(plus_56 fail_10 (succ_56 zero_57) x_26335))
		(mul_1 fail_10 (succ_56 x_26248) (succ_56 x_26249) (succ_56 x_26250)))))
(assert (forall ((x_26249 Nat_301) (x_26248 Nat_301))
	(mul_1 zero_57 (succ_56 x_26248) (succ_56 x_26249) zero_57)))
(assert (forall ((x_26248 Nat_301) (z_995 Nat_301))
	(mul_1 zero_57 (succ_56 x_26248) zero_57 z_995)))
(assert (forall ((y_1034 Nat_301) (z_995 Nat_301))
	(mul_1 zero_57 zero_57 y_1034 z_995)))
(assert (forall ((x_26341 Nat_301) (x_26342 Nat_301) (x_26251 Nat_301) (y_1035 Nat_301) (z_996 Nat_301))
	(=>	(and true
			(diseqNat_301 x_26341 x_26342)
			(mul_1 x_26341 x_26251 y_1035 z_996)
			(mul_1 x_26342 z_996 x_26251 y_1035))
		false)))
(assert (forall ((x_26343 Nat_301) (x_26344 Nat_301) (x_26345 Nat_301) (x_26346 Nat_301) (x_26252 Nat_301) (y_1036 Nat_301) (z_997 Nat_301))
	(=>	(and true
			(diseqNat_301 x_26344 x_26346)
			(plus_56 x_26343 y_1036 z_997)
			(plus_56 x_26344 x_26252 x_26343)
			(plus_56 x_26345 x_26252 y_1036)
			(plus_56 x_26346 x_26345 z_997))
		false)))
(assert (forall ((x_26347 Nat_301) (x_26348 Nat_301) (x_26253 Nat_301) (y_1037 Nat_301))
	(=>	(and true
			(diseqNat_301 x_26347 x_26348)
			(plus_56 x_26347 x_26253 y_1037)
			(plus_56 x_26348 y_1037 x_26253))
		false)))
(assert (forall ((x_26349 Nat_301) (x_26254 Nat_301))
	(=>	(and true
			(diseqNat_301 x_26349 x_26254)
			(plus_56 x_26349 x_26254 zero_57))
		false)))
(assert (forall ((x_26350 Nat_301) (x_26255 Nat_301))
	(=>	(and true
			(diseqNat_301 x_26350 x_26255)
			(plus_56 x_26350 zero_57 x_26255))
		false)))
(check-sat)
